This is Ipopt version 3.13.4, running with linear solver mumps.
NOTE: Other linear solvers might be more efficient (see Ipopt documentation).

Number of nonzeros in equality constraint Jacobian...:     1455
Number of nonzeros in inequality constraint Jacobian.:        0
Number of nonzeros in Lagrangian Hessian.............:        0

Total number of variables............................:       97
                     variables with only lower bounds:        0
                variables with lower and upper bounds:       91
                     variables with only upper bounds:        0
Total number of equality constraints.................:       15
Total number of inequality constraints...............:        0
        inequality constraints with only lower bounds:        0
   inequality constraints with lower and upper bounds:        0
        inequality constraints with only upper bounds:        0

iter    objective    inf_pr   inf_du lg(mu)  ||d||  lg(rg) alpha_du alpha_pr  ls
   0  2.3295825e+01 3.74e-09 9.67e-01   0.0 0.00e+00    -  0.00e+00 0.00e+00   0
   1  2.1593930e+01 1.01e-01 2.27e+01  -0.3 5.07e-01    -  9.95e-01 1.00e+00f  1
   2  1.7731358e+01 5.99e-01 1.91e+02  -0.6 3.22e+00    -  9.89e-01 6.02e-01f  1
   3  1.8061359e+01 4.62e-01 3.07e+02  -0.4 8.13e-01    -  1.00e+00 2.68e-01f  2
   4  1.7711097e+01 4.22e-01 1.75e+03  -1.2 6.07e-01    -  9.99e-01 1.00e+00h  1
   5  2.0925433e+01 3.48e-01 1.07e+03   0.5 4.55e+00    -  1.62e-01 1.69e-01H  1
   6  2.2980437e+01 3.25e-01 1.65e+03  -0.4 3.75e+00    -  1.83e-01 1.55e-01h  1
   7  2.4503053e+01 2.84e-01 3.29e+03  -0.4 2.35e+00    -  1.48e-01 3.14e-01h  1
   8  2.4918663e+01 2.41e-01 1.98e+03  -0.4 6.52e-01    -  4.83e-01 5.00e-01f  2
   9  2.5819250e+01 2.34e-01 3.87e+02  -0.4 8.79e-01    -  1.00e+00 5.09e-01h  1
iter    objective    inf_pr   inf_du lg(mu)  ||d||  lg(rg) alpha_du alpha_pr  ls
  10  2.5507953e+01 4.85e-01 4.48e+02  -0.4 3.01e-01    -  7.38e-01 3.90e-01f  2
  11  2.5542400e+01 3.86e-01 3.20e+02  -0.4 4.50e-01    -  1.00e+00 2.41e-01h  1
  12  2.5803463e+01 2.95e-01 1.69e+03  -0.4 5.86e-01    -  8.89e-02 2.36e-01f  2
  13  2.5945166e+01 5.13e-02 6.06e+02  -0.4 3.23e-01    -  1.00e+00 5.04e-01H  1
  14  2.5946104e+01 4.85e-02 3.41e+03  -0.4 3.88e-01    -  4.27e-02 2.38e-02H  1
  15  2.6214722e+01 3.59e-01 4.39e+04  -0.4 8.62e-01    -  2.69e-01 1.45e-01f  2
  16  2.6387708e+01 3.43e-01 1.03e+05  -0.4 9.49e-01    -  2.27e-01 1.72e-01f  3
  17  2.6387220e+01 3.38e-01 1.02e+05  -0.4 1.43e+00    -  1.00e+00 1.38e-02h  2
  18  2.6419594e+01 1.53e-01 8.05e+04  -0.4 1.54e+00    -  1.00e+00 1.06e-01h  2
  19  2.6414205e+01 1.49e-01 5.87e+04  -0.4 1.53e+00    -  1.00e+00 4.03e-02h  2
iter    objective    inf_pr   inf_du lg(mu)  ||d||  lg(rg) alpha_du alpha_pr  ls
  20  2.6408291e+01 1.44e-01 5.68e+04  -0.4 1.06e+00    -  9.42e-01 2.77e-02h  5
  21  2.6406020e+01 1.40e-01 5.54e+04  -0.4 9.24e-01    -  1.00e+00 9.86e-03h  5
  22  2.6405616e+01 1.40e-01 5.55e+04  -0.4 1.67e+00    -  5.79e-01 6.57e-04h 10
  23  2.6404861e+01 1.40e-01 5.51e+04  -0.4 2.14e+00    -  1.00e+00 1.06e-03h  9
  24  2.6347327e+01 5.44e-01 2.42e+04  -0.4 2.11e+00    -  3.12e-01 6.95e-02h  4
  25  2.6357959e+01 6.26e-01 1.01e+05  -0.4 2.68e+00    -  1.00e+00 5.26e-02w  1
  26  2.6269932e+01 1.81e+00 1.42e+06  -0.4 4.36e+00    -  5.14e-01 9.27e-02w  1
  27  2.6489193e+01 2.93e+01 2.40e+11  -0.4 6.04e-01    -  7.77e-01 8.38e-01w  1
  28  2.6347368e+01 5.43e-01 2.44e+04  -0.4 2.20e+00    -  1.00e+00 2.06e-04h  8
  29  2.6347367e+01 5.43e-01 2.78e+05  -0.4 2.87e+00    -  1.00e+00 2.91e-05h 12
iter    objective    inf_pr   inf_du lg(mu)  ||d||  lg(rg) alpha_du alpha_pr  ls
  30  2.6347370e+01 5.43e-01 1.99e+05  -0.4 6.61e+00    -  3.64e-01 1.88e-05h 14
  31  2.6347372e+01 5.43e-01 1.85e+05  -0.4 1.25e+00    -  4.99e-01 1.68e-05h 14
  32r 2.6347372e+01 5.43e-01 1.00e+03  -0.3 0.00e+00    -  0.00e+00 3.05e-07R 20
  33r 2.6303854e+01 1.25e-01 9.22e+02   0.4 5.22e+02    -  8.84e-02 1.03e-03f  1
  34  2.6171630e+01 3.26e-01 7.06e+01  -0.4 4.39e-01  -0.5 9.95e-01 7.55e-01f  1
  35  2.6038344e+01 1.12e-01 9.00e+02  -0.4 1.58e-01   2.2 1.00e+00 9.96e-01h  1
  36  2.6027937e+01 4.42e-02 9.54e+03  -0.4 1.81e+00    -  1.00e+00 6.09e-01h  1
  37  2.6028603e+01 8.24e-02 1.05e+04  -0.4 3.63e-01    -  8.97e-01 2.16e-01f  3
  38  2.6075377e+01 6.99e-02 2.13e+04  -0.4 1.32e+00    -  1.00e+00 1.75e-01h  1
  39  2.6114557e+01 7.24e-02 3.56e+04  -0.4 1.40e+00    -  2.97e-01 1.14e-01h  1
iter    objective    inf_pr   inf_du lg(mu)  ||d||  lg(rg) alpha_du alpha_pr  ls
  40  2.6242933e+01 6.70e-02 4.92e+04  -0.4 2.57e+00    -  7.94e-02 4.66e-02f  2
  41  2.6284847e+01 5.81e-02 6.62e+04  -0.4 5.67e-01    -  1.00e+00 1.39e-01h  2
  42  2.6228493e+01 5.91e-02 7.58e+04  -0.4 2.04e-01    -  8.72e-01 5.00e-01f  2
  43  2.6230250e+01 4.66e-02 2.06e+04  -0.4 1.72e-01    -  4.55e-01 4.39e-01h  1
  44  2.6233053e+01 4.71e-02 3.87e+04  -0.4 2.06e-01    -  1.00e+00 1.24e-01h  1
  45  2.6240761e+01 4.57e-02 5.96e+05  -0.4 1.08e+00    -  5.02e-01 3.30e-02h  1
  46  2.6215069e+01 4.90e-02 1.22e+06  -0.4 8.07e-01    -  1.00e+00 2.89e-02f  2
  47  2.6188998e+01 4.62e-02 3.67e+06  -0.4 8.04e-01    -  4.54e-02 4.37e-02h  1
  48  2.6185829e+01 4.60e-02 4.03e+06  -0.4 7.35e-01    -  6.31e-01 5.52e-03h  1
  49  2.6179207e+01 4.71e-02 4.09e+06  -0.4 4.18e-01    -  1.00e+00 2.69e-02h  4
iter    objective    inf_pr   inf_du lg(mu)  ||d||  lg(rg) alpha_du alpha_pr  ls
  50  2.6160706e+01 4.78e-02 3.14e+06  -0.4 1.55e+00    -  1.08e-01 1.01e-02f  6
  51  2.6160960e+01 4.78e-02 3.65e+06  -0.4 2.08e+00    -  8.12e-02 1.86e-04h  6
  52  2.6162599e+01 4.78e-02 2.06e+07  -0.4 6.31e+00    -  1.23e-01 3.88e-04h  7
  53  2.6159731e+01 4.77e-02 1.34e+08  -0.4 2.93e+00    -  9.22e-01 2.15e-03h  7
  54  2.6160385e+01 4.77e-02 1.30e+08  -0.4 1.06e+00    -  6.60e-02 2.53e-03h  8
  55  2.6160544e+01 4.78e-02 1.04e+08  -0.4 1.02e+00    -  2.22e-01 1.49e-03h  6
  56  2.6161659e+01 4.78e-02 1.04e+09  -0.4 7.83e+00    -  1.11e-01 1.89e-04h  7
  57  2.6159184e+01 4.78e-02 1.43e+09  -0.4 4.79e+00    -  3.74e-02 6.86e-04h  8
  58  2.6164566e+01 4.78e-02 8.31e+09  -0.4 1.98e+00    -  1.00e+00 3.65e-03h  6
  59  2.6198453e+01 1.81e-01 5.90e+11  -0.4 1.11e+00    -  1.00e+00 1.56e-01w  1
iter    objective    inf_pr   inf_du lg(mu)  ||d||  lg(rg) alpha_du alpha_pr  ls
  60  2.6034809e+01 3.00e-01 1.10e+11  -0.4 1.37e-01    -  1.47e-02 1.00e+00w  1
  61  2.5702800e+01 2.83e-01 5.32e+11  -0.4 1.31e+00    -  9.09e-01 2.70e-01w  1
  62  2.6166684e+01 4.79e-02 8.53e+09  -0.4 3.39e+00    -  1.00e+00 9.73e-03h  4
  63  2.6152741e+01 4.86e-02 9.07e+10  -0.4 5.73e-01    -  1.51e-01 1.85e-02h  6
  64  2.6152099e+01 4.86e-02 1.07e+11  -0.4 2.10e+00    -  2.96e-01 6.51e-04h  6
  65  2.6151201e+01 4.86e-02 2.59e+11  -0.4 9.39e+00    -  2.84e-02 1.50e-04h  8
  66  2.6151514e+01 4.86e-02 3.52e+12  -0.4 3.02e+00    -  5.91e-01 8.93e-05h  8
  67  2.6151851e+01 4.86e-02 3.47e+12  -0.4 7.99e+00    -  1.46e-02 1.43e-04f 10
  68  2.6151763e+01 4.86e-02 4.31e+12  -0.4 4.24e+00    -  6.98e-02 9.73e-05h  8
  69r 2.6151763e+01 4.86e-02 1.00e+03  -0.4 0.00e+00    -  0.00e+00 4.89e-07R 14
iter    objective    inf_pr   inf_du lg(mu)  ||d||  lg(rg) alpha_du alpha_pr  ls
  70r 2.6454113e+01 6.74e-01 9.37e+02   1.3 3.00e+01    -  9.82e-01 1.47e-02f  1
  71r 2.6216118e+01 1.21e+00 4.31e+03  -0.1 4.58e-01    -  9.52e-02 4.90e-01f  1
  72r 2.6195891e+01 7.49e-01 2.01e+03  -0.9 1.82e-01    -  9.44e-01 3.37e-01f  1
  73r 2.6176415e+01 3.00e-01 7.74e+03  -5.9 3.83e-01    -  4.86e-01 7.21e-01f  1
  74r 2.5987230e+01 1.91e-01 3.44e+02  -1.0 1.99e-01    -  8.20e-01 8.44e-01f  1
  75r 2.5978121e+01 6.52e-02 4.21e+02  -1.3 1.18e-01    -  1.00e+00 7.45e-01f  1
  76r 2.6009660e+01 9.77e-02 4.00e+02  -1.3 2.41e-01    -  1.00e+00 1.20e-01f  2
  77r 2.5845708e+01 8.49e-02 1.70e+02  -0.6 9.02e-02    -  1.00e+00 1.00e+00f  1
  78r 2.5983544e+01 6.79e-02 6.97e+03  -1.1 1.91e-01    -  1.00e+00 6.29e-01f  1
  79r 2.5962999e+01 6.17e-02 4.84e+03  -1.1 1.22e-01    -  1.00e+00 2.29e-01h  1
iter    objective    inf_pr   inf_du lg(mu)  ||d||  lg(rg) alpha_du alpha_pr  ls
  80r 2.5973991e+01 5.67e-02 2.07e+03  -1.5 1.13e-01    -  7.62e-01 3.18e-01f  1
  81r 2.5076619e+01 1.13e+00 5.37e+05  -0.4 3.39e-01    -  1.14e-01 7.71e-01F  1
  82r 2.5079646e+01 1.13e+00 5.33e+05  -0.8 5.87e-01    -  2.64e-01 6.32e-03f  1
  83r 2.5138132e+01 1.02e+00 4.58e+05  -0.8 4.87e-01    -  1.44e-01 1.37e-01h  1
  84r 2.5166897e+01 9.25e-01 4.03e+05  -0.8 1.23e+01    -  8.28e-01 3.72e-03f  1
  85r 2.5205445e+01 9.25e-01 5.06e+04  -0.8 5.17e-01    -  9.87e-01 8.36e-01f  1
  86r 2.5232183e+01 8.90e-01 4.91e+04  -0.8 2.07e-01    -  3.34e-01 3.79e-02h  1
  87r 2.5526878e+01 4.74e-01 1.27e+04  -0.8 2.29e-01    -  1.00e+00 4.64e-01h  1
  88r 2.5877420e+01 1.12e-01 1.23e+04  -0.8 1.41e-01    -  3.24e-01 1.00e+00h  1
  89r 2.5877253e+01 5.22e-02 2.65e+04  -0.8 4.54e-01    -  4.95e-01 5.31e-01f  1
iter    objective    inf_pr   inf_du lg(mu)  ||d||  lg(rg) alpha_du alpha_pr  ls
  90  2.5877383e+01 4.93e-02 1.98e+04  -0.4 2.66e-01   4.4 9.96e-01 5.16e-02h  1
  91  2.5921412e+01 4.70e-02 3.36e+06  -0.4 1.97e+00    -  7.89e-04 4.81e-02h  1
  92  2.5956338e+01 4.50e-02 6.38e+06  -0.4 1.75e+00    -  1.00e+00 3.94e-02h  1
  93  2.5960130e+01 4.44e-02 6.58e+06  -0.4 2.65e-01   4.8 7.10e-02 1.36e-02h  1
  94  2.5969699e+01 4.35e-02 6.88e+06  -0.4 7.69e-01    -  1.00e+00 2.53e-02h  1
  95  2.5974210e+01 4.33e-02 7.49e+06  -0.4 1.55e+00    -  7.40e-02 1.03e-02f  5
  96  2.5978203e+01 4.32e-02 7.89e+06  -0.4 1.18e+00    -  9.11e-02 3.98e-03f  6
  97  2.5980175e+01 4.31e-02 8.05e+06  -0.4 1.63e+00    -  5.79e-02 3.52e-03f  6
  98  2.5982537e+01 4.32e-02 8.06e+06  -0.4 1.70e+00    -  1.00e+00 3.09e-03f  6
  99  2.5986653e+01 4.35e-02 7.53e+06  -0.4 1.92e+00    -  9.67e-02 7.14e-03h  5
iter    objective    inf_pr   inf_du lg(mu)  ||d||  lg(rg) alpha_du alpha_pr  ls
 100  2.5986381e+01 4.37e-02 7.40e+06  -0.4 4.81e-01    -  9.30e-01 7.81e-03f  8
 101  2.5987604e+01 4.36e-02 7.55e+06  -0.4 4.98e-01    -  2.25e-02 2.36e-03h  1
 102  2.6021689e+01 4.10e-02 1.88e+07  -0.4 4.65e-01    -  6.23e-02 3.72e-02f  2
 103  2.6024658e+01 4.11e-02 2.06e+07  -0.4 8.90e-01    -  2.42e-02 3.35e-03h  4
 104  2.6031155e+01 4.11e-02 2.19e+07  -0.4 1.05e+00    -  2.79e-01 4.37e-03h  3
 105  2.6064709e+01 4.14e-02 2.71e+07  -0.4 1.02e+00    -  3.16e-01 1.74e-02h  1
 106  2.6086666e+01 4.23e-02 3.03e+07  -0.4 1.27e+00    -  4.68e-02 1.26e-02f  4
 107  2.6144929e+01 4.99e-02 4.43e+07  -0.4 1.41e+00    -  5.92e-04 4.74e-02f  2
 108  2.6144687e+01 4.99e-02 4.49e+07  -0.4 1.86e+00    -  1.00e+00 1.58e-03h  6
